
Log started (V11.0.0) Tue May 20 19:59:30 2008

Tried aggregator 1 time.
Reduced MIP has 240 rows, 8001 columns, and 16040 nonzeros.
Presolve time =    0.05 sec.
Clique table members: 200.
MIP emphasis: balance optimality and feasibility.
MIP search method: dynamic search.
Parallel mode: none, using 1 thread.
Root relaxation solution time =    0.50 sec.

        Nodes                                         Cuts/
   Node  Left     Objective  IInf  Best Integer     Best Node    ItCnt     Gap

*     0+    0                       210530.0000     5012.8454      547   97.62%
*     0+    0                         5040.0000     5012.8454      547    0.54%
      0     0     5016.7388    61     5040.0000      Fract: 6      635    0.46%
      0     0     5019.2974    78     5040.0000     Covers: 1      716    0.41%
*     0+    0                         5038.0000     5019.2974      716    0.37%
      0     0     5019.4279    84     5038.0000     Covers: 3      880    0.37%
      0     0     5020.8978    86     5038.0000       Cuts: 2      962    0.34%
*     0+    0                         5035.0000     5020.8978      962    0.28%
      0     0     5021.1704    85     5035.0000     Covers: 2     1154    0.27%
      0     0     5021.2331    93     5035.0000       Cuts: 6     1213    0.27%
*     0+    0                         5033.0000     5021.2331     1213    0.23%
      0     2     5022.0000    85     5033.0000     5021.2331     1213    0.23%
    100    64        cutoff           5033.0000     5022.0000    17747    0.22%
    200   114     5032.0000    57     5033.0000     5022.0000    39605    0.22%
    300   146        cutoff           5033.0000     5022.0000    68447    0.22%
*   362+   45                         5032.0000     5022.0000    82281    0.20%
*   362+   45                         5031.0000     5022.0000    82281    0.18%
    400    84     5022.0000    83     5031.0000     5022.0000    86156    0.18%
*   476+   90                         5030.0000     5024.6093    97808    0.11%
    500    96     5027.0000    73     5030.0000     5025.0000    98594    0.10%
    600   101     5027.0000    78     5030.0000     5025.0000   110894    0.10%
    700   194     5027.0000    74     5030.0000     5025.0000   125769    0.10%
    800   239     5028.0000    70     5030.0000     5025.0000   129529    0.10%
    900   242    infeasible           5030.0000     5025.0000   130838    0.10%
   1000   296     5028.0000    45     5030.0000     5025.0000   141376    0.10%
Elapsed time =  82.44 sec. (tree size =  1.73 MB, solutions = 8)
   1100   378     5028.0000    73     5030.0000     5025.0000   148129    0.10%
   1200   464     5028.0000    63     5030.0000     5025.0000   157252    0.10%
   1300   542     5028.0000    32     5030.0000     5025.0000   169716    0.10%
   1400   642     5028.0000    40     5030.0000     5025.0000   172357    0.10%
*  1476+  228                         5028.0000     5025.0000   186356    0.06%
   1500   217     5025.0816   145     5028.0000     5025.0000   216215    0.06%
   1600   168        cutoff           5028.0000     5027.0000   325472    0.02%
   1700    68        cutoff           5028.0000     5027.0000   353749    0.02%

Cover cuts applied:  195
Mixed integer rounding cuts applied:  7
Zero-half cuts applied:  1
Gomory fractional cuts applied:  9

Solution pool: 9 solutions saved.

MIP - Integer optimal solution:  Objective = 5.0280000000e+003
Solution time =  171.34 sec.  Iterations = 354684  Nodes = 1769


Incumbent solution
Variable Name           Solution Value
Cmax                       5028.000000
X_1_23                        1.000000
X_2_26                        1.000000
X_3_20                        1.000000
X_4_21                        1.000000
X_5_29                        1.000000
X_6_21                        1.000000
X_7_1                         1.000000
X_8_7                         1.000000
X_9_27                        1.000000
X_10_19                       1.000000
X_11_4                        1.000000
X_12_24                       1.000000
X_13_22                       1.000000
X_14_10                       1.000000
X_15_2                        1.000000
X_16_18                       1.000000
X_17_31                       1.000000
X_18_17                       1.000000
X_19_10                       1.000000
X_20_23                       1.000000
X_21_16                       1.000000
X_22_37                       1.000000
X_23_21                       1.000000
X_24_17                       1.000000
X_25_39                       1.000000
X_26_15                       1.000000
X_27_12                       1.000000
X_28_35                       1.000000
X_29_37                       1.000000
X_30_40                       1.000000
X_31_34                       1.000000
X_32_9                        1.000000
X_33_31                       1.000000
X_34_2                        1.000000
X_35_40                       1.000000
X_36_11                       1.000000
X_37_26                       1.000000
X_38_39                       1.000000
X_39_6                        1.000000
X_40_33                       1.000000
X_41_17                       1.000000
X_42_8                        1.000000
X_43_35                       1.000000
X_44_7                        1.000000
X_45_5                        1.000000
X_46_30                       1.000000
X_47_29                       1.000000
X_48_36                       1.000000
X_49_38                       1.000000
X_50_18                       1.000000
X_51_6                        1.000000
X_52_26                       1.000000
X_53_2                        1.000000
X_54_8                        1.000000
X_55_27                       1.000000
X_56_22                       1.000000
X_57_29                       1.000000
X_58_33                       1.000000
X_59_9                        1.000000
X_60_28                       1.000000
X_61_36                       1.000000
X_62_16                       1.000000
X_63_28                       1.000000
X_64_21                       1.000000
X_65_22                       1.000000
X_66_33                       1.000000
X_67_35                       1.000000
X_68_38                       1.000000
X_69_31                       1.000000
X_70_16                       1.000000
X_71_39                       1.000000
X_72_10                       1.000000
X_73_1                        1.000000
X_74_5                        1.000000
X_75_24                       1.000000
X_76_15                       1.000000
X_77_32                       1.000000
X_78_18                       1.000000
X_79_23                       1.000000
X_80_19                       1.000000
X_81_14                       1.000000
X_82_24                       1.000000
X_83_33                       1.000000
X_84_14                       1.000000
X_85_32                       1.000000
X_86_12                       1.000000
X_87_10                       1.000000
X_88_5                        1.000000
X_89_9                        1.000000
X_90_15                       1.000000
X_91_12                       1.000000
X_92_31                       1.000000
X_93_13                       1.000000
X_94_23                       1.000000
X_95_28                       1.000000
X_96_13                       1.000000
X_97_40                       1.000000
X_98_21                       1.000000
X_99_20                       1.000000
X_100_29                      1.000000
X_101_1                       1.000000
X_102_23                      1.000000
X_103_1                       1.000000
X_104_1                       1.000000
X_105_3                       1.000000
X_106_39                      1.000000
X_107_30                      1.000000
X_108_27                      1.000000
X_109_19                      1.000000
X_110_30                      1.000000
X_111_11                      1.000000
X_112_38                      1.000000
X_113_18                      1.000000
X_114_6                       1.000000
X_115_2                       1.000000
X_116_37                      1.000000
X_117_34                      1.000000
X_118_34                      1.000000
X_119_5                       1.000000
X_120_38                      1.000000
X_121_34                      1.000000
X_122_22                      1.000000
X_123_3                       1.000000
X_124_17                      1.000000
X_125_36                      1.000000
X_126_32                      1.000000
X_127_35                      1.000000
X_128_29                      1.000000
X_129_7                       1.000000
X_130_26                      1.000000
X_131_14                      1.000000
X_132_25                      1.000000
X_133_11                      1.000000
X_134_3                       1.000000
X_135_4                       1.000000
X_136_33                      1.000000
X_137_24                      1.000000
X_138_40                      1.000000
X_139_16                      1.000000
X_140_27                      1.000000
X_141_11                      1.000000
X_142_8                       1.000000
X_143_26                      1.000000
X_144_19                      1.000000
X_145_25                      1.000000
X_146_13                      1.000000
X_147_5                       1.000000
X_148_39                      1.000000
X_149_6                       1.000000
X_150_18                      1.000000
X_151_8                       1.000000
X_152_9                       1.000000
X_153_30                      1.000000
X_154_12                      1.000000
X_155_30                      1.000000
X_156_28                      1.000000
X_157_7                       1.000000
X_158_37                      1.000000
X_159_34                      1.000000
X_160_3                       1.000000
X_161_15                      1.000000
X_162_12                      1.000000
X_163_4                       1.000000
X_164_13                      1.000000
X_165_16                      1.000000
X_166_35                      1.000000
X_167_37                      1.000000
X_168_7                       1.000000
X_169_20                      1.000000
X_170_2                       1.000000
X_171_22                      1.000000
X_172_32                      1.000000
X_173_25                      1.000000
X_174_20                      1.000000
X_175_19                      1.000000
X_176_4                       1.000000
X_177_38                      1.000000
X_178_4                       1.000000
X_179_20                      1.000000
X_180_17                      1.000000
X_181_9                       1.000000
X_182_11                      1.000000
X_183_13                      1.000000
X_184_10                      1.000000
X_185_15                      1.000000
X_186_36                      1.000000
X_187_32                      1.000000
X_188_14                      1.000000
X_189_31                      1.000000
X_190_25                      1.000000
X_191_25                      1.000000
X_192_3                       1.000000
X_193_36                      1.000000
X_194_14                      1.000000
X_195_27                      1.000000
X_196_28                      1.000000
X_197_6                       1.000000
X_198_40                      1.000000
X_199_8                       1.000000
X_200_24                      1.000000
All other variables in the range 1-8001 are 0.
